\ENCODING=ISO-8859-1
\Problem name: ilog.cplex

Minimize
 obj1: 95688 x1 + 100963 x2 + 97423 x3 + 105259 x4 + 106434 x5 + 90559 x6
       + 99106 x7 + 93638 x8 + 100091 x9 + 108661 x10 + 103879 x11 + 94558 x12
       + 91410 x13 + 106016 x14 + 102508 x15 + 103718 x16 + 93787 x17
       + 106272 x18 + 91444 x19 + 98831 x20 + 106140 x21 + 101893 x22
       + 107776 x23 + 98976 x24 + 109092 x25 + 99573 x26 + 104158 x27
       + 100484 x28 + 99276 x29 + 105642 x30 + 95660 x31 + 94023 x32
       + 104485 x33 + 94184 x34 + 102205 x35 + 90038 x36 + 96930 x37
       + 98402 x38 + 92641 x39 + 97894 x40 + 97079 x41 + 109232 x42
       + 109451 x43 + 97775 x44 + 96305 x45 + 94294 x46 + 96757 x47 + 93845 x48
       + 103049 x49 + 104956 x50 + 99643 x51 + 98463 x52 + 107530 x53
       + 91103 x54 + 97465 x55 + 109550 x56 + 99558 x57 + 97948 x58
       + 107821 x59 + 105376 x60 + 90509 x61 + 99068 x62 + 98851 x63
       + 104521 x64 + 104477 x65 + 91437 x66 + 90428 x67 + 104728 x68
       + 91053 x69 + 108667 x70 + 105853 x71 + 102532 x72 + 95154 x73
       + 93669 x74 + 90492 x75 + 102349 x76 + 109171 x77 + 98575 x78
       + 105283 x79 + 108314 x80 + 103583 x81 + 92555 x82 + 108418 x83
       + 102013 x84 + 97849 x85 + 100821 x86 + 109410 x87 + 109731 x88
       + 94645 x89 + 101462 x90 + 96371 x91 + 93981 x92 + 97417 x93 + 90619 x94
       + 99521 x95 + 105784 x96 + 103726 x97 + 91101 x98 + 101794 x99
       + 106554 x100 + 91428 x101 + 107284 x102 + 94333 x103 + 105785 x104
       + 99479 x105 + 106184 x106 + 108288 x107 + 96991 x108 + 100520 x109
       + 105823 x110 + 106482 x111 + 107007 x112 + 103026 x113 + 100263 x114
       + 95582 x115 + 97335 x116 + 93235 x117 + 103723 x118 + 108721 x119
       + 106860 x120 + 91571 x121 + 97014 x122 + 94192 x123 + 95142 x124
       + 99275 x125 + 95372 x126 + 107112 x127 + 96603 x128 + 105512 x129
       + 105954 x130 + 108235 x131 + 100055 x132 + 93190 x133 + 92076 x134
       + 104884 x135 + 92135 x136 + 100339 x137 + 105634 x138 + 100393 x139
       + 92893 x140 + 103160 x141 + 109171 x142 + 90519 x143 + 107134 x144
       + 106693 x145 + 104722 x146 + 97935 x147 + 96047 x148 + 99545 x149
       + 97809 x150 + 91859 x151 + 92792 x152 + 97666 x153 + 94539 x154
       + 90871 x155 + 90412 x156 + 97138 x157 + 105224 x158 + 106233 x159
       + 90771 x160 + 92842 x161 + 109266 x162 + 97449 x163 + 108616 x164
       + 92775 x165 + 100383 x166 + 105836 x167 + 109966 x168 + 109985 x169
       + 109625 x170 + 105359 x171 + 100687 x172 + 105202 x173 + 101321 x174
       + 95346 x175 + 93473 x176 + 95598 x177 + 97233 x178 + 96137 x179
       + 106567 x180 + 95944 x181 + 97887 x182 + 100599 x183 + 106460 x184
       + 95662 x185 + 106783 x186 + 101965 x187 + 106401 x188 + 98103 x189
       + 90557 x190 + 101590 x191 + 92683 x192 + 96818 x193 + 106142 x194
       + 98995 x195 + 91491 x196 + 97702 x197 + 94600 x198 + 100969 x199
       + 90532 x200 + 91691 x201 + 99027 x202 + 105846 x203 + 109974 x204
       + 93669 x205 + 108652 x206 + 107109 x207 + 106331 x208 + 106817 x209
       + 109653 x210 + 96905 x211 + 98769 x212 + 106351 x213 + 102933 x214
       + 91262 x215 + 102117 x216 + 94647 x217 + 105863 x218 + 97646 x219
       + 103119 x220 + 108507 x221 + 107774 x222 + 100985 x223 + 102664 x224
       + 93095 x225 + 104160 x226 + 98778 x227 + 104376 x228 + 90649 x229
       + 98333 x230 + 100629 x231 + 99009 x232 + 99136 x233 + 109580 x234
       + 102355 x235 + 104719 x236 + 103702 x237 + 102841 x238 + 90362 x239
       + 109583 x240 + 92051 x241 + 96504 x242 + 108034 x243 + 104597 x244
       + 93821 x245 + 92121 x246 + 102682 x247 + 92928 x248 + 93588 x249
       + 52934 x250 + 192209 x251 + 208251 x252 + 202946 x253 + 194153 x254
       + 182122 x255 + 180713 x256 + 194245 x257 + 203119 x258 + 190526 x259
       + 185929 x260 + 187030 x261 + 195206 x262 + 219562 x263 + 216312 x264
       + 201819 x265 + 190532 x266 + 182583 x267 + 205511 x268 + 218780 x269
       + 188754 x270 + 190694 x271 + 183803 x272 + 216935 x273 + 180928 x274
       + 200358 x275 + 205754 x276 + 189133 x277 + 219582 x278 + 193794 x279
       + 205589 x280 + 182171 x281 + 198747 x282 + 187692 x283 + 189201 x284
       + 197132 x285 + 215979 x286 + 183263 x287 + 208931 x288 + 204412 x289
       + 212562 x290 + 202005 x291 + 188254 x292 + 181089 x293 + 215891 x294
       + 196525 x295 + 188214 x296 + 205165 x297 + 219667 x298 + 204617 x299
       + 291611 x300
Subject To
 c1:   - x16 + x18 - x36 + x43  = 0
 c2:   - x66 + x68 - x86 + x93  = 0
 c3:   - x116 + x118 - x136 + x143  = 0
 c4:   - x166 + x168 - x186 + x193  = -1
 c5:   - x216 + x218 - x236 + x243  = 0
 c6:   - x6 - x11 + x15 - x27 - x40 + x48 + x50  = 0
 c7:   - x56 - x61 + x65 - x77 - x90 + x98 + x100  = 0
 c8:   - x106 - x111 + x115 - x127 - x140 + x148 + x150  = 0
 c9:   - x156 - x161 + x165 - x177 - x190 + x198 + x200  = 0
 c10:  - x206 - x211 + x215 - x227 - x240 + x248 + x250  = 0
 c11:  - x3 + x7 + x10 - x13 - x14 - x44 - x49 - x50  = 0
 c12:  - x53 + x57 + x60 - x63 - x64 - x94 - x99 - x100  = 0
 c13:  - x103 + x107 + x110 - x113 - x114 - x144 - x149 - x150  = 0
 c14:  - x153 + x157 + x160 - x163 - x164 - x194 - x199 - x200  = 0
 c15:  - x203 + x207 + x210 - x213 - x214 - x244 - x249 - x250  = 0
 c16:  - x2 + x9 - x25 + x26 - x29 + x36 - x41 + x44 - x46  = -1
 c17:  - x52 + x59 - x75 + x76 - x79 + x86 - x91 + x94 - x96  = -1
 c18:  - x102 + x109 - x125 + x126 - x129 + x136 - x141 + x144 - x146  = 0
 c19:  - x152 + x159 - x175 + x176 - x179 + x186 - x191 + x194 - x196  = 0
 c20:  - x202 + x209 - x225 + x226 - x229 + x236 - x241 + x244 - x246  = 0
 c21:  x2 - x8 - x20 + x22 - x26 + x28 - x31 + x42 - x47 - x48  = 0
 c22:  x52 - x58 - x70 + x72 - x76 + x78 - x81 + x92 - x97 - x98  = 0
 c23:  x102 - x108 - x120 + x122 - x126 + x128 - x131 + x142 - x147 - x148  = 0
 c24:  x152 - x158 - x170 + x172 - x176 + x178 - x181 + x192 - x197 - x198  = 0
 c25:  x202 - x208 - x220 + x222 - x226 + x228 - x231 + x242 - x247 - x248
        = -1
 c26:  x32 - x45  = 0
 c27:  x82 - x95  = 0
 c28:  x132 - x145  = 0
 c29:  x182 - x195  = 0
 c30:  x232 - x245  = 0
 c31:  - x1 + x4 + x14 - x17 + x23 + x35 - x43  = 0
 c32:  - x51 + x54 + x64 - x67 + x73 + x85 - x93  = 0
 c33:  - x101 + x104 + x114 - x117 + x123 + x135 - x143  = 0
 c34:  - x151 + x154 + x164 - x167 + x173 + x185 - x193  = 0
 c35:  - x201 + x204 + x214 - x217 + x223 + x235 - x243  = 0
 c36:  x5 - x9 + x21 + x27 + x29 + x31 - x42  = 0
 c37:  x55 - x59 + x71 + x77 + x79 + x81 - x92  = 0
 c38:  x105 - x109 + x121 + x127 + x129 + x131 - x142  = 0
 c39:  x155 - x159 + x171 + x177 + x179 + x181 - x192  = 1
 c40:  x205 - x209 + x221 + x227 + x229 + x231 - x242  = 1
 c41:  - x10 - x12 - x24 + x41  = 0
 c42:  - x60 - x62 - x74 + x91  = 0
 c43:  - x110 - x112 - x124 + x141  = -1
 c44:  - x160 - x162 - x174 + x191  = 0
 c45:  - x210 - x212 - x224 + x241  = 0
 c46:  x25 - x33 - x37 + x38 + x49  = 0
 c47:  x75 - x83 - x87 + x88 + x99  = 1
 c48:  x125 - x133 - x137 + x138 + x149  = 0
 c49:  x175 - x183 - x187 + x188 + x199  = 0
 c50:  x225 - x233 - x237 + x238 + x249  = 0
 c51:  x11 + x13 - x18 + x19 + x20 + x24 + x34 - x35 - x39  = 0
 c52:  x61 + x63 - x68 + x69 + x70 + x74 + x84 - x85 - x89  = 0
 c53:  x111 + x113 - x118 + x119 + x120 + x124 + x134 - x135 - x139  = 0
 c54:  x161 + x163 - x168 + x169 + x170 + x174 + x184 - x185 - x189  = 0
 c55:  x211 + x213 - x218 + x219 + x220 + x224 + x234 - x235 - x239  = 0
 c56:  x3 - x5 - x19 - x28 + x30 - x32 + x40 + x45 + x47  = 0
 c57:  x53 - x55 - x69 - x78 + x80 - x82 + x90 + x95 + x97  = 0
 c58:  x103 - x105 - x119 - x128 + x130 - x132 + x140 + x145 + x147  = 1
 c59:  x153 - x155 - x169 - x178 + x180 - x182 + x190 + x195 + x197  = 0
 c60:  x203 - x205 - x219 - x228 + x230 - x232 + x240 + x245 + x247  = 0
 c61:  - x4 - x7 - x15 + x17 + x33 - x38 + x46  = 0
 c62:  - x54 - x57 - x65 + x67 + x83 - x88 + x96  = 0
 c63:  - x104 - x107 - x115 + x117 + x133 - x138 + x146  = 0
 c64:  - x154 - x157 - x165 + x167 + x183 - x188 + x196  = 0
 c65:  - x204 - x207 - x215 + x217 + x233 - x238 + x246  = 0
 c66:  x6 + x8 + x12 + x16 - x21 - x30 - x34 + x39  = 1
 c67:  x56 + x58 + x62 + x66 - x71 - x80 - x84 + x89  = 0
 c68:  x106 + x108 + x112 + x116 - x121 - x130 - x134 + x139  = 0
 c69:  x156 + x158 + x162 + x166 - x171 - x180 - x184 + x189  = 0
 c70:  x206 + x208 + x212 + x216 - x221 - x230 - x234 + x239  = 0
 c71:  x1 - x22 - x23 + x37  = 0
 c72:  x51 - x72 - x73 + x87  = 0
 c73:  x101 - x122 - x123 + x137  = 0
 c74:  x151 - x172 - x173 + x187  = 0
 c75:  x201 - x222 - x223 + x237  = 0
 c76:  4 x1 + 4 x51 + 4 x101 + 4 x151 + 4 x201 - 2 x251 <= 0
 c77:  4 x2 + 4 x52 + 4 x102 + 4 x152 + 4 x202 - 2 x252 <= 0
 c78:  4 x3 + 4 x53 + 4 x103 + 4 x153 + 4 x203 - 2 x253 <= 0
 c79:  4 x4 + 4 x54 + 4 x104 + 4 x154 + 4 x204 - 2 x254 <= 0
 c80:  4 x5 + 4 x55 + 4 x105 + 4 x155 + 4 x205 - 2 x255 <= 0
 c81:  4 x6 + 4 x56 + 4 x106 + 4 x156 + 4 x206 - 2 x256 <= 0
 c82:  4 x7 + 4 x57 + 4 x107 + 4 x157 + 4 x207 - 2 x257 <= 0
 c83:  4 x8 + 4 x58 + 4 x108 + 4 x158 + 4 x208 - 2 x258 <= 0
 c84:  4 x9 + 4 x59 + 4 x109 + 4 x159 + 4 x209 - 2 x259 <= 0
 c85:  4 x10 + 4 x60 + 4 x110 + 4 x160 + 4 x210 - 2 x260 <= 0
 c86:  4 x11 + 4 x61 + 4 x111 + 4 x161 + 4 x211 - 2 x261 <= 0
 c87:  4 x12 + 4 x62 + 4 x112 + 4 x162 + 4 x212 - 2 x262 <= 0
 c88:  4 x13 + 4 x63 + 4 x113 + 4 x163 + 4 x213 - 2 x263 <= 0
 c89:  4 x14 + 4 x64 + 4 x114 + 4 x164 + 4 x214 - 2 x264 <= 0
 c90:  4 x15 + 4 x65 + 4 x115 + 4 x165 + 4 x215 - 2 x265 <= 0
 c91:  4 x16 + 4 x66 + 4 x116 + 4 x166 + 4 x216 - 2 x266 <= 0
 c92:  4 x17 + 4 x67 + 4 x117 + 4 x167 + 4 x217 - 2 x267 <= 0
 c93:  4 x18 + 4 x68 + 4 x118 + 4 x168 + 4 x218 - 2 x268 <= 0
 c94:  4 x19 + 4 x69 + 4 x119 + 4 x169 + 4 x219 - 2 x269 <= 0
 c95:  4 x20 + 4 x70 + 4 x120 + 4 x170 + 4 x220 - 2 x270 <= 0
 c96:  4 x21 + 4 x71 + 4 x121 + 4 x171 + 4 x221 - 2 x271 <= 0
 c97:  4 x22 + 4 x72 + 4 x122 + 4 x172 + 4 x222 - 2 x272 <= 0
 c98:  4 x23 + 4 x73 + 4 x123 + 4 x173 + 4 x223 - 2 x273 <= 0
 c99:  4 x24 + 4 x74 + 4 x124 + 4 x174 + 4 x224 - 2 x274 <= 0
 c100: 4 x25 + 4 x75 + 4 x125 + 4 x175 + 4 x225 - 2 x275 <= 0
 c101: 4 x26 + 4 x76 + 4 x126 + 4 x176 + 4 x226 - 2 x276 <= 0
 c102: 4 x27 + 4 x77 + 4 x127 + 4 x177 + 4 x227 - 2 x277 <= 0
 c103: 4 x28 + 4 x78 + 4 x128 + 4 x178 + 4 x228 - 2 x278 <= 0
 c104: 4 x29 + 4 x79 + 4 x129 + 4 x179 + 4 x229 - 2 x279 <= 0
 c105: 4 x30 + 4 x80 + 4 x130 + 4 x180 + 4 x230 - 2 x280 <= 0
 c106: 4 x31 + 4 x81 + 4 x131 + 4 x181 + 4 x231 - 2 x281 <= 0
 c107: 4 x32 + 4 x82 + 4 x132 + 4 x182 + 4 x232 - 2 x282 <= 0
 c108: 4 x33 + 4 x83 + 4 x133 + 4 x183 + 4 x233 - 2 x283 <= 0
 c109: 4 x34 + 4 x84 + 4 x134 + 4 x184 + 4 x234 - 2 x284 <= 0
 c110: 4 x35 + 4 x85 + 4 x135 + 4 x185 + 4 x235 - 2 x285 <= 0
 c111: 4 x36 + 4 x86 + 4 x136 + 4 x186 + 4 x236 - 2 x286 <= 0
 c112: 4 x37 + 4 x87 + 4 x137 + 4 x187 + 4 x237 - 2 x287 <= 0
 c113: 4 x38 + 4 x88 + 4 x138 + 4 x188 + 4 x238 - 2 x288 <= 0
 c114: 4 x39 + 4 x89 + 4 x139 + 4 x189 + 4 x239 - 2 x289 <= 0
 c115: 4 x40 + 4 x90 + 4 x140 + 4 x190 + 4 x240 - 2 x290 <= 0
 c116: 4 x41 + 4 x91 + 4 x141 + 4 x191 + 4 x241 - 2 x291 <= 0
 c117: 4 x42 + 4 x92 + 4 x142 + 4 x192 + 4 x242 - 2 x292 <= 0
 c118: 4 x43 + 4 x93 + 4 x143 + 4 x193 + 4 x243 - 2 x293 <= 0
 c119: 4 x44 + 4 x94 + 4 x144 + 4 x194 + 4 x244 - 2 x294 <= 0
 c120: 4 x45 + 4 x95 + 4 x145 + 4 x195 + 4 x245 - 2 x295 <= 0
 c121: 4 x46 + 4 x96 + 4 x146 + 4 x196 + 4 x246 - 2 x296 <= 0
 c122: 4 x47 + 4 x97 + 4 x147 + 4 x197 + 4 x247 - 2 x297 <= 0
 c123: 4 x48 + 4 x98 + 4 x148 + 4 x198 + 4 x248 - 2 x298 <= 0
 c124: 4 x49 + 4 x99 + 4 x149 + 4 x199 + 4 x249 - 2 x299 <= 0
 c125: 4 x50 + 4 x100 + 4 x150 + 4 x200 + 4 x250 - 2 x300 <= 0
Bounds
 0 <= x1 <= 1
 0 <= x2 <= 1
 0 <= x3 <= 1
 0 <= x4 <= 1
 0 <= x5 <= 1
 0 <= x6 <= 1
 0 <= x7 <= 1
 0 <= x8 <= 1
 0 <= x9 <= 1
 0 <= x10 <= 1
 0 <= x11 <= 1
 0 <= x12 <= 1
 0 <= x13 <= 1
 0 <= x14 <= 1
 0 <= x15 <= 1
 0 <= x16 <= 1
 0 <= x17 <= 1
 0 <= x18 <= 1
 0 <= x19 <= 1
 0 <= x20 <= 1
 0 <= x21 <= 1
 0 <= x22 <= 1
 0 <= x23 <= 1
 0 <= x24 <= 1
 0 <= x25 <= 1
 0 <= x26 <= 1
 0 <= x27 <= 1
 0 <= x28 <= 1
 0 <= x29 <= 1
 0 <= x30 <= 1
 0 <= x31 <= 1
 0 <= x32 <= 1
 0 <= x33 <= 1
 0 <= x34 <= 1
 0 <= x35 <= 1
 0 <= x36 <= 1
 0 <= x37 <= 1
 0 <= x38 <= 1
 0 <= x39 <= 1
 0 <= x40 <= 1
 0 <= x41 <= 1
 0 <= x42 <= 1
 0 <= x43 <= 1
 0 <= x44 <= 1
 0 <= x45 <= 1
 0 <= x46 <= 1
 0 <= x47 <= 1
 0 <= x48 <= 1
 0 <= x49 <= 1
 0 <= x50 <= 1
 0 <= x51 <= 1
 0 <= x52 <= 1
 0 <= x53 <= 1
 0 <= x54 <= 1
 0 <= x55 <= 1
 0 <= x56 <= 1
 0 <= x57 <= 1
 0 <= x58 <= 1
 0 <= x59 <= 1
 0 <= x60 <= 1
 0 <= x61 <= 1
 0 <= x62 <= 1
 0 <= x63 <= 1
 0 <= x64 <= 1
 0 <= x65 <= 1
 0 <= x66 <= 1
 0 <= x67 <= 1
 0 <= x68 <= 1
 0 <= x69 <= 1
 0 <= x70 <= 1
 0 <= x71 <= 1
 0 <= x72 <= 1
 0 <= x73 <= 1
 0 <= x74 <= 1
 0 <= x75 <= 1
 0 <= x76 <= 1
 0 <= x77 <= 1
 0 <= x78 <= 1
 0 <= x79 <= 1
 0 <= x80 <= 1
 0 <= x81 <= 1
 0 <= x82 <= 1
 0 <= x83 <= 1
 0 <= x84 <= 1
 0 <= x85 <= 1
 0 <= x86 <= 1
 0 <= x87 <= 1
 0 <= x88 <= 1
 0 <= x89 <= 1
 0 <= x90 <= 1
 0 <= x91 <= 1
 0 <= x92 <= 1
 0 <= x93 <= 1
 0 <= x94 <= 1
 0 <= x95 <= 1
 0 <= x96 <= 1
 0 <= x97 <= 1
 0 <= x98 <= 1
 0 <= x99 <= 1
 0 <= x100 <= 1
 0 <= x101 <= 1
 0 <= x102 <= 1
 0 <= x103 <= 1
 0 <= x104 <= 1
 0 <= x105 <= 1
 0 <= x106 <= 1
 0 <= x107 <= 1
 0 <= x108 <= 1
 0 <= x109 <= 1
 0 <= x110 <= 1
 0 <= x111 <= 1
 0 <= x112 <= 1
 0 <= x113 <= 1
 0 <= x114 <= 1
 0 <= x115 <= 1
 0 <= x116 <= 1
 0 <= x117 <= 1
 0 <= x118 <= 1
 0 <= x119 <= 1
 0 <= x120 <= 1
 0 <= x121 <= 1
 0 <= x122 <= 1
 0 <= x123 <= 1
 0 <= x124 <= 1
 0 <= x125 <= 1
 0 <= x126 <= 1
 0 <= x127 <= 1
 0 <= x128 <= 1
 0 <= x129 <= 1
 0 <= x130 <= 1
 0 <= x131 <= 1
 0 <= x132 <= 1
 0 <= x133 <= 1
 0 <= x134 <= 1
 0 <= x135 <= 1
 0 <= x136 <= 1
 0 <= x137 <= 1
 0 <= x138 <= 1
 0 <= x139 <= 1
 0 <= x140 <= 1
 0 <= x141 <= 1
 0 <= x142 <= 1
 0 <= x143 <= 1
 0 <= x144 <= 1
 0 <= x145 <= 1
 0 <= x146 <= 1
 0 <= x147 <= 1
 0 <= x148 <= 1
 0 <= x149 <= 1
 0 <= x150 <= 1
 0 <= x151 <= 1
 0 <= x152 <= 1
 0 <= x153 <= 1
 0 <= x154 <= 1
 0 <= x155 <= 1
 0 <= x156 <= 1
 0 <= x157 <= 1
 0 <= x158 <= 1
 0 <= x159 <= 1
 0 <= x160 <= 1
 0 <= x161 <= 1
 0 <= x162 <= 1
 0 <= x163 <= 1
 0 <= x164 <= 1
 0 <= x165 <= 1
 0 <= x166 <= 1
 0 <= x167 <= 1
 0 <= x168 <= 1
 0 <= x169 <= 1
 0 <= x170 <= 1
 0 <= x171 <= 1
 0 <= x172 <= 1
 0 <= x173 <= 1
 0 <= x174 <= 1
 0 <= x175 <= 1
 0 <= x176 <= 1
 0 <= x177 <= 1
 0 <= x178 <= 1
 0 <= x179 <= 1
 0 <= x180 <= 1
 0 <= x181 <= 1
 0 <= x182 <= 1
 0 <= x183 <= 1
 0 <= x184 <= 1
 0 <= x185 <= 1
 0 <= x186 <= 1
 0 <= x187 <= 1
 0 <= x188 <= 1
 0 <= x189 <= 1
 0 <= x190 <= 1
 0 <= x191 <= 1
 0 <= x192 <= 1
 0 <= x193 <= 1
 0 <= x194 <= 1
 0 <= x195 <= 1
 0 <= x196 <= 1
 0 <= x197 <= 1
 0 <= x198 <= 1
 0 <= x199 <= 1
 0 <= x200 <= 1
 0 <= x201 <= 1
 0 <= x202 <= 1
 0 <= x203 <= 1
 0 <= x204 <= 1
 0 <= x205 <= 1
 0 <= x206 <= 1
 0 <= x207 <= 1
 0 <= x208 <= 1
 0 <= x209 <= 1
 0 <= x210 <= 1
 0 <= x211 <= 1
 0 <= x212 <= 1
 0 <= x213 <= 1
 0 <= x214 <= 1
 0 <= x215 <= 1
 0 <= x216 <= 1
 0 <= x217 <= 1
 0 <= x218 <= 1
 0 <= x219 <= 1
 0 <= x220 <= 1
 0 <= x221 <= 1
 0 <= x222 <= 1
 0 <= x223 <= 1
 0 <= x224 <= 1
 0 <= x225 <= 1
 0 <= x226 <= 1
 0 <= x227 <= 1
 0 <= x228 <= 1
 0 <= x229 <= 1
 0 <= x230 <= 1
 0 <= x231 <= 1
 0 <= x232 <= 1
 0 <= x233 <= 1
 0 <= x234 <= 1
 0 <= x235 <= 1
 0 <= x236 <= 1
 0 <= x237 <= 1
 0 <= x238 <= 1
 0 <= x239 <= 1
 0 <= x240 <= 1
 0 <= x241 <= 1
 0 <= x242 <= 1
 0 <= x243 <= 1
 0 <= x244 <= 1
 0 <= x245 <= 1
 0 <= x246 <= 1
 0 <= x247 <= 1
 0 <= x248 <= 1
 0 <= x249 <= 1
 0 <= x250 <= 1
 0 <= x251 <= 1
 0 <= x252 <= 1
 0 <= x253 <= 1
 0 <= x254 <= 1
 0 <= x255 <= 1
 0 <= x256 <= 1
 0 <= x257 <= 1
 0 <= x258 <= 1
 0 <= x259 <= 1
 0 <= x260 <= 1
 0 <= x261 <= 1
 0 <= x262 <= 1
 0 <= x263 <= 1
 0 <= x264 <= 1
 0 <= x265 <= 1
 0 <= x266 <= 1
 0 <= x267 <= 1
 0 <= x268 <= 1
 0 <= x269 <= 1
 0 <= x270 <= 1
 0 <= x271 <= 1
 0 <= x272 <= 1
 0 <= x273 <= 1
 0 <= x274 <= 1
 0 <= x275 <= 1
 0 <= x276 <= 1
 0 <= x277 <= 1
 0 <= x278 <= 1
 0 <= x279 <= 1
 0 <= x280 <= 1
 0 <= x281 <= 1
 0 <= x282 <= 1
 0 <= x283 <= 1
 0 <= x284 <= 1
 0 <= x285 <= 1
 0 <= x286 <= 1
 0 <= x287 <= 1
 0 <= x288 <= 1
 0 <= x289 <= 1
 0 <= x290 <= 1
 0 <= x291 <= 1
 0 <= x292 <= 1
 0 <= x293 <= 1
 0 <= x294 <= 1
 0 <= x295 <= 1
 0 <= x296 <= 1
 0 <= x297 <= 1
 0 <= x298 <= 1
 0 <= x299 <= 1
 0 <= x300 <= 1
Binaries
 x251  x252  x253  x254  x255  x256  x257  x258  x259  x260  x261  x262  x263 
 x264  x265  x266  x267  x268  x269  x270  x271  x272  x273  x274  x275  x276 
 x277  x278  x279  x280  x281  x282  x283  x284  x285  x286  x287  x288  x289 
 x290  x291  x292  x293  x294  x295  x296  x297  x298  x299  x300 
End
